files/upTests/tupley12-2-s/0001.eprime
language ESSENCE' 1.0

find pain_tuple1_Explicit: matrix indexed by [int(1..2), int(1..1)] of int(5)
find pain_tuple2: matrix indexed by [int(1..2)] of int(8)
find pain_tuple3: matrix indexed by [int(1..2)] of int(9)
such that
    forAll v__3 : int(1..1) . 5 = pain_tuple1_Explicit[1, v__3],
    exists v__6 : int(1..1) . pain_tuple1_Explicit[1, v__6] = 5,
    pain_tuple2[1] = 8,
    pain_tuple3[1] = 9,
    allDiff(pain_tuple1_Explicit[1, ..]),
    allDiff(pain_tuple1_Explicit[2, ..])
