files/upTests/tupley12-2-s/0001.eprime.solution
language ESSENCE' 1.0
$ minion Nodes: 1
$ minion TotalTime: 0.000598
$ Savile Row TotalTime: 0.266
letting pain_tuple2 be [8, 8;int(1..2)]
letting pain_tuple3 be [9, 9;int(1..2)]
letting pain_tuple1_SetExplicit be [[5;int(1..1)], 
[5;int(1..1)];int(1..2)]
